
Gurobi 10.0.1 (linux64) logging started Fri Apr  4 10:12:38 2025

Set parameter LogFile to value "Results/OneScenarioExperiments/option3_without_equality_constraints.log"
Set parameter TimeLimit to value 84600
Warning: linear constraint 797496 and linear constraint 797497 have the same name "storage_equal[1,2,1]"
Warning: default constraint names used to write mps file
Gurobi Optimizer version 10.0.1 build v10.0.1rc0 (linux64)

CPU model: AMD EPYC 9654 96-Core Processor, instruction set [SSE2|AVX|AVX2|AVX512]
Thread count: 192 physical cores, 192 logical processors, using up to 32 threads

Academic license 656792 - for non-commercial use only - registered to b.___@student.vu.nl
Optimize a model with 1703600 rows, 1948128 columns and 7223504 nonzeros
Model fingerprint: 0x4237d9de
Coefficient statistics:
  Matrix range     [2e-01, 1e+00]
  Objective range  [6e-05, 5e+00]
  Bounds range     [0e+00, 0e+00]
  RHS range        [1e-02, 1e+03]
Presolve removed 1462602 rows and 1548265 columns
Presolve time: 4.36s
Presolved: 240998 rows, 399890 columns, 1511400 nonzeros

Concurrent LP optimizer: primal simplex, dual simplex, and barrier
Showing barrier log only...

Ordering time: 1.68s

Barrier statistics:
 AA' NZ     : 1.945e+06
 Factor NZ  : 2.160e+07 (roughly 240 MB of memory)
 Factor Ops : 1.926e+10 (less than 1 second per iteration)
 Threads    : 30

                  Objective                Residual
Iter       Primal          Dual         Primal    Dual     Compl     Time
   0  -2.33961081e+05  5.27704818e+07  7.82e+03 3.80e+01  1.71e+04     7s
   1  -5.78054008e+06  4.07098616e+07  1.98e+03 5.45e+00  3.77e+03     7s
   2  -5.31435488e+06  1.90749037e+07  4.95e+02 2.99e-01  7.56e+02     7s
   3  -1.72680541e+06  4.20612951e+06  8.16e+01 1.88e-02  1.30e+02     7s
   4  -3.65182766e+05  1.49757492e+06  1.43e+01 4.31e-03  3.04e+01     7s
   5  -1.19937822e+05  6.95834028e+05  3.93e+00 1.74e-03  1.14e+01     7s
   6  -3.19773072e+04  2.39615058e+05  1.22e+00 4.64e-04  3.50e+00     7s
   7   1.05382398e+03  6.66773273e+04  3.32e-01 7.21e-05  8.06e-01     8s
   8   1.10351052e+04  3.89781172e+04  1.51e-01 2.61e-05  3.37e-01     8s
   9   1.75819531e+04  2.94899034e+04  4.40e-02 1.16e-05  1.36e-01     8s
  10   1.94193218e+04  2.64429517e+04  1.96e-02 7.28e-06  7.86e-02     8s
  11   2.02481400e+04  2.39589780e+04  1.02e-02 3.74e-06  4.14e-02     8s
  12   2.06886585e+04  2.29380790e+04  6.01e-03 2.18e-06  2.51e-02     8s
  13   2.09765119e+04  2.23508594e+04  3.57e-03 1.28e-06  1.53e-02     8s
  14   2.12219411e+04  2.20313286e+04  1.68e-03 8.30e-07  8.90e-03     8s
  15   2.13314674e+04  2.17928733e+04  9.59e-04 4.58e-07  5.08e-03     8s
  16   2.13972695e+04  2.16772738e+04  5.83e-04 2.68e-07  3.08e-03     8s
  17   2.14246499e+04  2.16400610e+04  4.38e-04 2.06e-07  2.37e-03     8s
  18   2.14622704e+04  2.15921904e+04  2.50e-04 1.24e-07  1.43e-03     8s
  19   2.14750037e+04  2.15829178e+04  1.92e-04 1.08e-07  1.18e-03     9s
  20   2.14875301e+04  2.15442366e+04  1.38e-04 4.10e-08  6.31e-04     9s
  21   2.15063147e+04  2.15357368e+04  5.19e-05 2.71e-08  3.22e-04     9s
  22   2.15106417e+04  2.15297791e+04  3.24e-05 1.79e-08  2.10e-04     9s
  23   2.15142414e+04  2.15268744e+04  1.69e-05 1.31e-08  1.37e-04     9s
  24   2.15157811e+04  2.15257747e+04  1.11e-05 1.13e-08  1.08e-04     9s
  25   2.15173791e+04  2.15242381e+04  4.99e-06 8.72e-09  7.33e-05     9s
  26   2.15186135e+04  2.15213974e+04  1.30e-06 3.76e-09  2.96e-05     9s
  27   2.15190130e+04  2.15197123e+04  3.04e-07 8.14e-10  7.43e-06     9s
  28   2.15191226e+04  2.15194608e+04  1.44e-07 3.89e-10  3.59e-06     9s
  29   2.15191375e+04  2.15193855e+04  1.23e-07 2.61e-10  2.64e-06     9s
  30   2.15191765e+04  2.15193478e+04  6.71e-08 1.97e-10  1.82e-06     9s
  31   2.15192128e+04  2.15192515e+04  1.48e-08 3.40e-11  4.13e-07    10s
  32   2.15192208e+04  2.15192332e+04  6.88e-09 6.61e-12  1.34e-07    10s
  33   2.15192251e+04  2.15192301e+04  2.81e-09 2.19e-12  5.36e-08    10s
  34   2.15192283e+04  2.15192286e+04  1.74e-08 2.63e-13  3.63e-09    10s
  35   2.15192284e+04  2.15192284e+04  1.96e-07 3.69e-13  5.27e-10    10s

Barrier solved model in 35 iterations and 9.97 seconds (10.63 work units)
Optimal objective 2.15192284e+04

Crossover log...

   23698 variables added to crossover basis                       10s

   37898 DPushes remaining with DInf 4.4764225e-03                10s
       0 DPushes remaining with DInf 0.0000000e+00                10s

   16861 PPushes remaining with PInf 1.3767915e-06                10s
       0 PPushes remaining with PInf 0.0000000e+00                10s

  Push phase complete: Pinf 0.0000000e+00, Dinf 2.9756250e-01     10s

Iteration    Objective       Primal Inf.    Dual Inf.      Time
   50163    2.1519228e+04   0.000000e+00   2.975625e-01     10s

Solved with barrier
Extra simplex iterations after uncrush: 3
   50835    2.1519228e+04   0.000000e+00   0.000000e+00     11s

Use crossover to convert LP symmetric solution to basic solution...
Crossover log...

    3124 DPushes remaining with DInf 0.0000000e+00                11s
       0 DPushes remaining with DInf 0.0000000e+00                11s

    4894 PPushes remaining with PInf 0.0000000e+00                11s
       0 PPushes remaining with PInf 0.0000000e+00                11s

  Push phase complete: Pinf 0.0000000e+00, Dinf 5.3433924e-12     11s

Iteration    Objective       Primal Inf.    Dual Inf.      Time
   69515    2.1519523e+04   0.000000e+00   6.668902e+04     15s
   75458    2.1519593e+04   0.000000e+00   1.145016e+05     21s
   78720    2.1519611e+04   0.000000e+00   1.817142e+05     26s
   81967    2.1519615e+04   0.000000e+00   1.469448e+05     31s
   84776    2.1519617e+04   0.000000e+00   6.887045e+04     35s
   86970    2.1519619e+04   0.000000e+00   9.864859e+04     42s
   87607    2.1519621e+04   0.000000e+00   1.432773e+05     45s
   88881    2.1519622e+04   0.000000e+00   1.235492e+05     51s
   90155    2.1519623e+04   0.000000e+00   9.469813e+05     58s
   90792    2.1519624e+04   0.000000e+00   1.206397e+05     61s
   92066    2.1519625e+04   0.000000e+00   3.917086e+04     68s
   92703    2.1519625e+04   0.000000e+00   4.546960e+04     71s
   93977    2.1519626e+04   0.000000e+00   1.752178e+05     78s
   94614    2.1519627e+04   0.000000e+00   3.318412e+05     80s
   95888    2.1519627e+04   0.000000e+00   8.991472e+04     87s
   96525    2.1519628e+04   0.000000e+00   1.241699e+05     90s
   97799    2.1519628e+04   0.000000e+00   1.130831e+06     99s
   98436    2.1519629e+04   0.000000e+00   2.508214e+05    104s
   99073    2.1519629e+04   0.000000e+00   3.828736e+04    109s
   99710    2.1519629e+04   0.000000e+00   5.341499e+04    114s
  100347    2.1519629e+04   0.000000e+00   5.671601e+04    118s
  100984    2.1519630e+04   0.000000e+00   2.006650e+05    123s
  101621    2.1519630e+04   0.000000e+00   1.893236e+04    128s
  102258    2.1519630e+04   0.000000e+00   3.374828e+04    133s
  102895    2.1519630e+04   0.000000e+00   1.895786e+05    137s
  103532    2.1519631e+04   0.000000e+00   2.664918e+05    142s
  104169    2.1519631e+04   0.000000e+00   2.446801e+04    146s
  104806    2.1519631e+04   0.000000e+00   1.808707e+04    151s
  106080    2.1519632e+04   0.000000e+00   1.669298e+04    160s
  106717    2.1519632e+04   0.000000e+00   1.833044e+04    164s
  107354    2.1519632e+04   0.000000e+00   8.465978e+03    169s
  107991    2.1519632e+04   0.000000e+00   1.396137e+04    173s
  108628    2.1519632e+04   0.000000e+00   2.771098e+04    179s
  109265    2.1519632e+04   0.000000e+00   9.071964e+03    183s
  109902    2.1519633e+04   0.000000e+00   2.055421e+04    188s
  110539    2.1519633e+04   0.000000e+00   9.760314e+03    193s
  111176    2.1519633e+04   0.000000e+00   8.809338e+04    198s
  111813    2.1519633e+04   0.000000e+00   9.808072e+03    203s
  112450    2.1519633e+04   0.000000e+00   3.491781e+04    208s
  113087    2.1519633e+04   0.000000e+00   3.409140e+04    214s
  113724    2.1519633e+04   0.000000e+00   7.456628e+03    218s
  114361    2.1519633e+04   0.000000e+00   2.933648e+04    223s
  114998    2.1519634e+04   0.000000e+00   7.614242e+03    229s
  115635    2.1519634e+04   0.000000e+00   2.342833e+04    234s
  116272    2.1519634e+04   0.000000e+00   5.087006e+04    239s
  116909    2.1519634e+04   0.000000e+00   5.269180e+04    244s
  117546    2.1519634e+04   0.000000e+00   3.455342e+04    250s
  118183    2.1519634e+04   0.000000e+00   1.156614e+04    255s
  119457    2.1519634e+04   0.000000e+00   2.976285e+04    264s
  120094    2.1519634e+04   0.000000e+00   1.946686e+04    269s
  120731    2.1519635e+04   0.000000e+00   4.347037e+03    275s
  121368    2.1519635e+04   0.000000e+00   1.170949e+04    281s
  122005    2.1519635e+04   0.000000e+00   1.224919e+04    287s
  122642    2.1519635e+04   0.000000e+00   2.090797e+04    293s
  123279    2.1519635e+04   0.000000e+00   9.760412e+03    299s
  123916    2.1519635e+04   0.000000e+00   8.830860e+03    304s
  124553    2.1519635e+04   0.000000e+00   1.526625e+04    310s
  125190    2.1519635e+04   0.000000e+00   2.786965e+04    315s
  125827    2.1519635e+04   0.000000e+00   2.393288e+04    321s
  126464    2.1519635e+04   0.000000e+00   1.406629e+04    328s
  127101    2.1519635e+04   0.000000e+00   3.063725e+04    334s
  127738    2.1519635e+04   0.000000e+00   4.087675e+04    340s
  128375    2.1519635e+04   0.000000e+00   2.793175e+03    347s
  129012    2.1519635e+04   0.000000e+00   2.938925e+04    352s
  129649    2.1519635e+04   0.000000e+00   5.224844e+03    358s
  130286    2.1519636e+04   0.000000e+00   7.860802e+03    363s
  130923    2.1519636e+04   0.000000e+00   2.047680e+05    368s
  131560    2.1519636e+04   0.000000e+00   2.421134e+03    373s
  132197    2.1519636e+04   0.000000e+00   1.064427e+04    379s
  132834    2.1519636e+04   0.000000e+00   7.495618e+03    386s
  133471    2.1519636e+04   0.000000e+00   4.499057e+03    391s
  134108    2.1519636e+04   0.000000e+00   4.090704e+03    396s
  134745    2.1519636e+04   0.000000e+00   1.879216e+03    401s
  135382    2.1519636e+04   0.000000e+00   3.152242e+03    406s
  136019    2.1519636e+04   0.000000e+00   2.530825e+03    411s
  136656    2.1519636e+04   0.000000e+00   1.272991e+03    416s
  137293    2.1519636e+04   0.000000e+00   1.610029e+04    422s
  137930    2.1519636e+04   0.000000e+00   5.349367e+03    427s
  138567    2.1519636e+04   0.000000e+00   3.898718e+03    433s
  139204    2.1519636e+04   0.000000e+00   9.919235e+02    439s
  139841    2.1519636e+04   0.000000e+00   1.201223e+03    445s
  140471    2.1519636e+04   0.000000e+00   1.102789e+03    452s
  141108    2.1519636e+04   0.000000e+00   9.377403e+02    458s
  141718    2.1519636e+04   0.000000e+00   8.890935e+03    465s
  142355    2.1519636e+04   0.000000e+00   1.841705e+03    471s
  142992    2.1519636e+04   0.000000e+00   1.951682e+03    478s
  143629    2.1519636e+04   0.000000e+00   1.695697e+03    484s
  144266    2.1519636e+04   0.000000e+00   1.627388e+03    489s
  144903    2.1519636e+04   0.000000e+00   3.210419e+03    496s
  145540    2.1519636e+04   0.000000e+00   1.403078e+03    503s
  146177    2.1519636e+04   0.000000e+00   2.431509e+03    509s
  146814    2.1519636e+04   0.000000e+00   3.993001e+02    515s
  147451    2.1519636e+04   0.000000e+00   5.073294e+02    521s
  148088    2.1519636e+04   0.000000e+00   4.489685e+03    527s
  148725    2.1519636e+04   0.000000e+00   4.897107e+02    533s
  149362    2.1519636e+04   0.000000e+00   7.047348e+02    539s
  149999    2.1519636e+04   0.000000e+00   1.094520e+03    545s
  150636    2.1519636e+04   0.000000e+00   8.781997e+02    551s
  151226    2.1519636e+04   0.000000e+00   2.744417e+02    558s
  151863    2.1519636e+04   0.000000e+00   3.858805e+02    564s
  152500    2.1519636e+04   0.000000e+00   5.535944e+02    569s
  153137    2.1519636e+04   0.000000e+00   5.620653e+02    575s
  153774    2.1519636e+04   0.000000e+00   2.365162e+02    582s
  154404    2.1519636e+04   0.000000e+00   2.502415e+03    589s
  155034    2.1519636e+04   0.000000e+00   2.956711e+02    595s
  155671    2.1519636e+04   0.000000e+00   7.405252e+02    602s
  156291    2.1519636e+04   0.000000e+00   2.879041e+02    609s
  156861    2.1519636e+04   0.000000e+00   9.653869e+02    615s
  157498    2.1519636e+04   0.000000e+00   2.755406e+02    621s
  158135    2.1519636e+04   0.000000e+00   5.113807e+02    628s
  158772    2.1519636e+04   0.000000e+00   2.166916e+02    633s
  159409    2.1519636e+04   0.000000e+00   2.852751e+02    638s
  160046    2.1519636e+04   0.000000e+00   7.569593e+01    643s
  160683    2.1519636e+04   0.000000e+00   5.033828e+02    648s
  161320    2.1519636e+04   0.000000e+00   9.670344e+01    655s
  161957    2.1519636e+04   0.000000e+00   2.097194e+02    661s
  162594    2.1519636e+04   0.000000e+00   5.215400e+01    667s
  163231    2.1519636e+04   0.000000e+00   1.117090e+02    673s
  163868    2.1519636e+04   0.000000e+00   4.137778e-01    678s
  164428    2.1519636e+04   0.000000e+00   5.372024e-01    683s
  164771    2.1519228e+04   0.000000e+00   0.000000e+00    686s
Extra simplex iterations after uncrush: 106025

Solved in 164771 iterations and 686.00 seconds (874.19 work units)
Optimal objective  2.151922844e+04
